% Solution

%%%%%%%%%% Sudoku parameters %%%%%%%%%%
size = 9;

clue = [| 0, 0, 0,   0, 0, 0,   0, 0, 0
        | 0, 0, 0,   0, 0, 0,   0, 0, 0
        | 0, 0, 0,   0, 0, 0,   0, 0, 0

        | 0, 0, 0,   0, 0, 0,   0, 0, 0
        | 0, 0, 0,   0, 0, 0,   0, 0, 0
        | 0, 0, 0,   0, 0, 0,   0, 0, 0

        | 0, 0, 0,   0, 0, 0,   0, 0, 0
        | 0, 0, 0,   0, 0, 0,   0, 0, 0
        | 0, 0, 0,   0, 0, 0,   0, 0, 0
        |];

%%%%%%%%%% Killer parameters %%%%%%%%%%

cage_count = 15;

cage_totals = [11, 11, 11, 11, 11, 11, 11, 11, 11, 11, 11, 11, 11, <>, <>];

cage_cells = [
  [(r: 1, c: 1), (r: 1, c: 2)],
  [(r: 1, c: 4), (r: 2, c: 4)],
  [(r: 1, c: 5), (r: 2, c: 5)],
  [(r: 1, c: 6), (r: 2, c: 6)],
  [(r: 3, c: 4), (r: 3, c: 5)],
  [(r: 3, c: 8), (r: 3, c: 9)],
  [(r: 4, c: 1), (r: 4, c: 2), (r: 5, c: 2)],
  [(r: 5, c: 6), (r: 6, c: 4), (r: 6, c: 5), (r: 6, c: 6)],
  [(r: 7, c: 1), (r: 8, c: 1)],
  [(r: 8, c: 4), (r: 9, c: 4)],
  [(r: 8, c: 6), (r: 9, c: 6)],
  [(r: 8, c: 7), (r: 8, c: 8), (r: 9, c: 7)],
  [(r: 9, c: 2), (r: 9, c: 3)],
  [(r: 2, c: 3), (r: 3, c: 2), (r: 3, c: 3), (r: 4, c: 3), (r: 5, c: 3), (r: 6, c: 3), (r: 7, c: 2), (r: 7, c: 3), (r: 7, c: 4)],
  [(r: 2, c: 7), (r: 3, c: 6), (r: 3, c: 7), (r: 4, c: 7), (r: 5, c: 7), (r: 6, c: 7), (r: 7, c: 6), (r: 7, c: 7), (r: 7, c: 8)],
  ];

%%%%%%%%%% Thermometer parameters %%%%%%%%%%

thermo_cells = [];

%%%%%%%% German Whispers parameters %%%%%%%%%

GW_cells = [
    [(r: 2, c: 3), (r: 3, c: 3), (r: 4, c: 3), (r: 5, c: 3), (r: 6, c: 3)],
    [(r: 2, c: 7), (r: 3, c: 7), (r: 4, c: 7), (r: 5, c: 7), (r: 6, c: 7), (r: 7, c: 7)],
    [(r: 6, c: 9), (r: 7, c: 9)]
    ];

%%%%%%%% Partial Kropki parameters %%%%%%%%%

krp_cells_white = [];
krp_cells_black = [];

%%%%%%%% Full Kropki parameters %%%%%%%%%

full_kropki = false;

%%%%%%%% Knight parameters %%%%%%%%%

knight = false;
